
Gurobi 9.1.1 (linux64) logging started Wed Apr 21 00:56:09 2021


Gurobi 9.1.1 (linux64) logging started Wed Apr 21 01:00:38 2021

Academic license - for non-commercial use only - expires 2021-06-19
Warning: parameter changes on this environment will not affect existing models.
Gurobi Optimizer version 9.1.1 build v9.1.1rc0 (linux64)
Thread count: 6 physical cores, 12 logical processors, using up to 12 threads
Optimize a model with 0 rows, 0 columns and 0 nonzeros
Model fingerprint: 0x0faeba03
Coefficient statistics:
  Matrix range     [0e+00, 0e+00]
  Objective range  [0e+00, 0e+00]
  Bounds range     [0e+00, 0e+00]
  RHS range        [0e+00, 0e+00]
Presolve time: 0.00s
Presolve: All rows and columns removed
Iteration    Objective       Primal Inf.    Dual Inf.      Time
       0   -0.0000000e+00   0.000000e+00   0.000000e+00      0s

Solved in 0 iterations and 0.00 seconds
Optimal objective -0.000000000e+00
